SCIP Status        : problem is solved [optimal solution found]
Total Time         :     412.29
  solving          :     412.29
  presolving       :       0.02 (included in solving)
  reading          :       0.00
  copying          :       0.10 (33 #copies) (minimal 0.00, maximal 0.02, average 0.00)
Original Problem   :
  Problem name     : watertreatnd_flow
  Variables        : 420 (5 binary, 0 integer, 0 implicit integer, 415 continuous)
  Constraints      : 379 initial, 379 maximal
  Objective        : minimize, 5 non-zeros (abs.min = 1, abs.max = 1)
Presolved Problem  :
  Problem name     : t_watertreatnd_flow
  Variables        : 555 (5 binary, 0 integer, 0 implicit integer, 550 continuous)
  Constraints      : 204 initial, 209 maximal
  Objective        : minimize, 5 non-zeros (abs.min = 1, abs.max = 1)
  Nonzeros         : 819 constraint, 0 clique table
Presolvers         :   ExecTime  SetupTime  Calls  FixedVars   AggrVars   ChgTypes  ChgBounds   AddHoles    DelCons    AddCons   ChgSides   ChgCoefs
  boundshift       :       0.00       0.00      0          0          0          0          0          0          0          0          0          0
  convertinttobin  :       0.00       0.00      0          0          0          0          0          0          0          0          0          0
  domcol           :       0.00       0.00      1          0          0          0          0          0          0          0          0          0
  dualagg          :       0.00       0.00      0          0          0          0          0          0          0          0          0          0
  dualcomp         :       0.00       0.00      1          0          0          0          0          0          0          0          0          0
  dualinfer        :       0.00       0.00      0          0          0          0          0          0          0          0          0          0
  dualsparsify     :       0.00       0.00      1          0          0          0          0          0          0          0          0          0
  gateextraction   :       0.00       0.00      0          0          0          0          0          0          0          0          0          0
  implics          :       0.00       0.00      3          0          0          0          0          0          0          0          0          0
  inttobinary      :       0.00       0.00      0          0          0          0          0          0          0          0          0          0
  qpkktref         :       0.00       0.00      0          0          0          0          0          0          0          0          0          0
  redvub           :       0.00       0.00      0          0          0          0          0          0          0          0          0          0
  sparsify         :       0.00       0.00      1          0          0          0          0          0          0          0          0          0
  stuffing         :       0.00       0.00      0          0          0          0          0          0          0          0          0          0
  trivial          :       0.00       0.00      4          0          0          0          0          0          0          0          0          0
  tworowbnd        :       0.00       0.00      0          0          0          0          0          0          0          0          0          0
  dualfix          :       0.00       0.00      4          0          0          0          0          0          0          0          0          0
  genvbounds       :       0.00       0.00      0          0          0          0          0          0          0          0          0          0
  probing          :       0.00       0.00      1          0          0          0          0          0          0          0          0          0
  pseudoobj        :       0.00       0.00      0          0          0          0          0          0          0          0          0          0
  symmetry         :       0.00       0.00      1          0          0          0          0          0          0          0          0          0
  vbounds          :       0.00       0.00      0          0          0          0          0          0          0          0          0          0
  varbound         :       0.00       0.00      4          0          0          0          0          0          0          0          0          0
  linear           :       0.00       0.00      7         36        139          0        310          0        175          0          0          0
  nonlinear        :       0.01       0.00      8          0          0          0         95          0          0          0          0          0
  benders          :       0.00       0.00      0          0          0          0          0          0          0          0          0          0
  components       :       0.00       0.00      1          0          0          0          0          0          0          0          0          0
  root node        :          -          -      -          1          -          -        515          -          -          -          -          -
Constraints        :     Number  MaxNumber  #Separate #Propagate    #EnfoLP    #EnfoRelax  #EnfoPS    #Check   #ResProp    Cutoffs    DomReds       Cuts    Applied      Conss   Children
  benderslp        :          0          0          0          0     142017          0          0       9816          0          0          0          0          0          0          0
  integral         :          0          0          0          0     142017          0          0       9816          0          0         90          0          0          0       1676
  varbound         :         10         10         20      19784          0          0          0       9810          0          0       2086          0          0          0          0
  linear           :         39+        44         20     795629          5          0          0       9648          0        111    1723155          0          0          0          0
  nonlinear        :        155        155     321482     795523     141177          0          0       9645          0        226    7150059     584359     478662          0     200210
  benders          :          0          0          0          0          5          0          0         41          0          0          0          0          0          0          0
  countsols        :          0          0          0          0          5          0          0         41          0          0          0          0          0          0          0
  components       :          0          0          0          0          0          0          0          0          0          0          0          0          0          0          0
Constraint Timings :  TotalTime  SetupTime   Separate  Propagate     EnfoLP     EnfoPS     EnfoRelax   Check    ResProp    SB-Prop
  benderslp        :       0.03       0.00       0.00       0.00       0.03       0.00       0.00       0.00       0.00       0.00
  integral         :       0.05       0.00       0.00       0.00       0.05       0.00       0.00       0.00       0.00       0.00
  varbound         :       0.02       0.00       0.00       0.01       0.00       0.00       0.00       0.00       0.00       0.00
  linear           :       4.36       0.00       0.00       4.36       0.00       0.00       0.00       0.01       0.00       0.00
  nonlinear        :      62.73       0.00      20.44      34.29       7.75       0.00       0.00       0.25       0.00       0.00
  benders          :       0.00       0.00       0.00       0.00       0.00       0.00       0.00       0.00       0.00       0.00
  countsols        :       0.00       0.00       0.00       0.00       0.00       0.00       0.00       0.00       0.00       0.00
  components       :       0.05       0.00       0.00       0.05       0.00       0.00       0.00       0.00       0.00       0.00
Propagators        : #Propagate   #ResProp    Cutoffs    DomReds
  dualfix          :          6          0          0          0
  genvbounds       :     316994          0          4     187020
  nlobbt           :          0          0          0          0
  obbt             :          4          0          0          6
  probing          :          0          0          0          0
  pseudoobj        :     936741          0          0      12820
  redcost          :      18585          0          0        147
  rootredcost      :         15          0          0         58
  symmetry         :          0          0          0          0
  vbounds          :       6113          0          0          0
Propagator Timings :  TotalTime  SetupTime   Presolve  Propagate    ResProp    SB-Prop
  dualfix          :       0.00       0.00       0.00       0.00       0.00       0.00
  genvbounds       :       0.75       0.00       0.00       0.75       0.00       0.00
  nlobbt           :       0.00       0.00       0.00       0.00       0.00       0.00
  obbt             :       0.23       0.00       0.00       0.23       0.00       0.00
  probing          :       0.00       0.00       0.00       0.00       0.00       0.00
  pseudoobj        :       0.45       0.00       0.00       0.45       0.00       0.00
  redcost          :       0.20       0.00       0.00       0.20       0.00       0.00
  rootredcost      :       0.13       0.00       0.00       0.13       0.00       0.00
  symmetry         :       0.08       0.00       0.00       0.08       0.00       0.00
  vbounds          :       0.12       0.00       0.00       0.12       0.00       0.00
Conflict Analysis  :       Time      Calls    Success    DomReds  Conflicts   Literals    Reconvs ReconvLits   Dualrays   Nonzeros   LP Iters   (pool size: [--,--])
  propagation      :       0.00          0          0          -          0        0.0          0        0.0          -          -          -
  infeasible LP    :       0.23       6138         12          -          0        0.0          0        0.0         12       19.6          0
  bound exceed. LP :       4.80      68649          0          -          0        0.0          0        0.0          0        0.0          0
  strong branching :       0.00          0          0          -          0        0.0          0        0.0          -          -          0
  pseudo solution  :       0.00          0          0          -          0        0.0          0        0.0          -          -          -
  applied globally :       0.00          -          -          0          0        0.0          -          -         12          -          -
  applied locally  :          -          -          -          0          0        0.0          -          -          0          -          -
Separators         :   ExecTime  SetupTime      Calls  RootCalls    Cutoffs    DomReds  FoundCuts ViaPoolAdd  DirectAdd    Applied ViaPoolApp  DirectApp      Conss
  cut pool         :       0.01          -      29844         34          -          -         77         61          -          -          -          -          -    (maximal pool size:         32)
  aggregation      :       0.02       0.00         48         20          0          0         28         20          0          6          6          0          0
  > cmir           :          -          -          -          -          -          -          -         20          0          6          6          0          -
  > flowcover      :          -          -          -          -          -          -          -          0          0          0          0          0          -
  > knapsackcover  :          -          -          -          -          -          -          -          0          0          0          0          0          -
  cgmip            :       0.00       0.00          0          0          0          0          0          0          0          0          0          0          0
  clique           :       0.00       0.00          1          1          0          0          0          0          0          0          0          0          0
  closecuts        :       0.00       0.00          0          0          0          0          0          0          0          0          0          0          0
  convexproj       :       0.00       0.00          0          0          0          0          0          0          0          0          0          0          0
  disjunctive      :       0.00       0.00          0          0          0          0          0          0          0          0          0          0          0
  eccuts           :       0.00       0.00          0          0          0          0          0          0          0          0          0          0          0
  gauge            :       0.00       0.00          0          0          0          0          0          0          0          0          0          0          0
  gomory           :       0.00       0.00         36         10          0          0          7          6          0          3          3          0          0
  > gomorymi       :          -          -          -          -          -          -          -          6          0          3          3          0          -
  > strongcg       :          -          -          -          -          -          -          -          0          0          0          0          0          -
  impliedbounds    :       0.00       0.00         48         20          0          0         33         27          0         22         22          0          0
  interminor       :       0.00       0.00          0          0          0          0          0          0          0          0          0          0          0
  intobj           :       0.00       0.00          0          0          0          0          0          0          0          0          0          0          0
  mcf              :       0.00       0.00          1          1          0          0          0          0          0          0          0          0          0
  minor            :       0.00       0.00          0          0          0          0          0          0          0          0          0          0          0
  mixing           :       0.01       0.00       1131         20          0          0          1          0          0          0          0          0          0
  oddcycle         :       0.00       0.00          0          0          0          0          0          0          0          0          0          0          0
  rapidlearning    :       0.00       0.00          0          0          0          0          0          0          0          0          0          0          0
  rlt              :       0.00       0.00         10         10          0          0          8          8          0          8          8          0          0
  zerohalf         :       0.00       0.00         46         20          0          0          0          0          0          0          0          0          0
Cutselectors       :   ExecTime  SetupTime      Calls  RootCalls   Selected     Forced   Filtered  RootSelec   RootForc   RootFilt 
  hybrid           :       0.30       0.00     229701         17     486566          0      39447         48          0         18
Pricers            :   ExecTime  SetupTime      Calls       Vars
  problem variables:       0.00          -          0          0
Branching Rules    :   ExecTime  SetupTime   BranchLP  BranchExt   BranchPS    Cutoffs    DomReds       Cuts      Conss   Children
  allfullstrong    :       0.00       0.00          0          0          0          0          0          0          0          0
  cloud            :       0.00       0.00          0          0          0          0          0          0          0          0
  distribution     :       0.00       0.00          0          0          0          0          0          0          0          0
  fullstrong       :       0.00       0.00          0          0          0          0          0          0          0          0
  inference        :       0.00       0.00          0          0          0          0          0          0          0          0
  leastinf         :       0.00       0.00          0          0          0          0          0          0          0          0
  lookahead        :       0.00       0.00          0          0          0          0          0          0          0          0
  mostinf          :       0.00       0.00          0          0          0          0          0          0          0          0
  multaggr         :       0.00       0.00          0          0          0          0          0          0          0          0
  nodereopt        :       0.00       0.00          0          0          0          0          0          0          0          0
  pscost           :       0.00       0.00          0          0          0          0          0          0          0          0
  random           :       0.00       0.00          0          0          0          0          0          0          0          0
  relpscost        :       0.02       0.00        840          0          0          0         90          0          0       1676
  vanillafullstrong:       0.00       0.00          0          0          0          0          0          0          0          0
Primal Heuristics  :   ExecTime  SetupTime      Calls      Found       Best
  LP solutions     :       0.01          -          -          5          5
  relax solutions  :       0.00          -          -          0          0
  pseudo solutions :       0.00          -          -          0          0
  strong branching :       0.00          -          -          0          0
  actconsdiving    :       0.00       0.00          0          0          0
  adaptivediving   :       0.11       0.00        796          0          0
  alns             :       0.43       0.00         16          0          0
  bound            :       0.00       0.00          0          0          0
  clique           :       0.00       0.00          0          0          0
  coefdiving       :       0.00       0.00          0          0          0
  completesol      :       0.00       0.00          0          0          0
  conflictdiving   :       0.07       0.00        800          0          0
  crossover        :       8.46       0.00          2          0          0
  dins             :       0.00       0.00          0          0          0
  distributiondivin:       1.95       0.00          6          0          0
  dps              :       0.00       0.00          0          0          0
  dualval          :       0.00       0.00          0          0          0
  farkasdiving     :       0.01       0.00          0          0          0
  feaspump         :       0.01       0.00          3          0          0
  fixandinfer      :       0.00       0.00          0          0          0
  fracdiving       :       0.06       0.00        808          0          0
  gins             :       0.04       0.00          0          0          0
  guideddiving     :       0.07       0.00        696          0          0
  indicator        :       0.06       0.00          0          0          0
  indicatordiving  :       0.00       0.00          0          0          0
  intdiving        :       0.00       0.00          0          0          0
  intshifting      :       0.01       0.00          4          0          0
  linesearchdiving :       0.06       0.00        812          0          0
  localbranching   :       0.00       0.00          0          0          0
  locks            :       0.01       0.00          1          0          0
  lpface           :       0.10       0.00          5          0          0
  mpec             :       5.46       0.00          2          0          0
  multistart       :       0.00       0.00          0          0          0
  mutation         :       0.00       0.00          0          0          0
  nlpdiving        :       0.22       0.00         10          0          0
  objpscostdiving  :       0.01       0.00          3          0          0
  octane           :       0.00       0.00          0          0          0
  ofins            :       0.04       0.00          0          0          0
  oneopt           :       0.06       0.00         14          0          0
  padm             :       0.00       0.00          0          0          0
  proximity        :       0.00       0.00          0          0          0
  pscostdiving     :       0.05       0.00          6          0          0
  randrounding     :       0.01       0.00        167          0          0
  rens             :       0.01       0.00          1          0          0
  reoptsols        :       0.00       0.00          0          0          0
  repair           :       0.00       0.00          0          0          0
  rins             :       8.10       0.00         14          1          1
  rootsoldiving    :       0.02       0.00          3          0          0
  rounding         :       0.08       0.00        609          0          0
  shiftandpropagate:       0.00       0.00          1          0          0
  shifting         :       0.02       0.00        194          0          0
  simplerounding   :       0.08       0.00          0          0          0
  subnlp           :      30.24       0.00        165         34          3
  trivial          :       0.00       0.00          2          0          0
  trivialnegation  :       0.00       0.00          0          0          0
  trustregion      :       0.00       0.00          0          0          0
  trysol           :       0.06       0.00          5          5          5
  twoopt           :       0.00       0.00          0          0          0
  undercover       :       0.02       0.00          1          0          0
  vbounds          :       0.00       0.00          0          0          0
  veclendiving     :       0.06       0.00        807          0          0
  zeroobj          :       0.00       0.00          0          0          0
  zirounding       :       0.06       0.00        838          0          0
  other solutions  :          -          -          -          0          -
Expressions        :   #IntEval  IntEvalTi   #RevProp  RevPropTi    DomReds    Cutoffs  #Estimate  EstimTime  Branching  #Simplify SimplifyTi Simplified
  pow              :     101049       0.04       8132       0.02          0          0     245879       0.08     141319         15       0.00          0
  prod             :   14867968       2.24     931294       0.40     448659         62    2981507       0.26     812991        400       0.00         72
  sum              :   14969017       2.11   12345634       3.14    3540628          4        155       0.00          0        564       0.00        265
  var              :   10334838       0.47          0       0.00          0          0          0       0.00          0       1055       0.00        102
  varidx           :          0       0.00          0       0.00          0          0          0       0.00          0          0       0.00          0
Nlhdlrs            :    Detects  DetectAll DetectTime   #IntEval  IntEvalTi   #RevProp  RevPropTi    DomReds    Cutoffs   #Enforce   EnfoTime       Cuts  Branching
  soc              :          0          0       0.00          0       0.00          0       0.00          0          0          0       0.00          0          0
  convex           :          0          0       0.00          0       0.00          0       0.00          0          0          0       0.00          0          0
  concave          :          0          0       0.00          0       0.00          0       0.00          0          0          0       0.00          0          0
  signomial        :          0          0       0.00          0       0.00          0       0.00          0          0          0       0.00          0          0
  quotient         :          0          0       0.00          0       0.00          0       0.00          0          0          0       0.00          0          0
  quadratic        :          0          0       0.00          0       0.00          0       0.00          0          0          0       0.00          0          0
  default          :        520       4680       0.00   29936983       5.92   13285690      10.09    3989287         66    3227386       4.10     583890          0
  bilinear         :        150        150       0.00   14864023       0.96     930832       0.09          0          0    2413856       0.22         96          0
  perspective      :          5          5       0.00          0       0.00          0       0.00          0          0     236117       0.27        746       2406
LP                 :       Time      Calls Iterations  Iter/call   Iter/sec  Time-0-It Calls-0-It    ItLimit
  primal LP        :      14.58      25376          6       3.00       0.41      14.57      25374
  dual LP          :     180.78     445467    1237064       4.06    6843.04      49.91     141031
  lex dual LP      :       0.00          0          0       0.00          -
  barrier LP       :       0.00          0          0       0.00          -       0.00          0
  resolve instable :       0.00          2         27      13.50          -
  diving/probing LP:       0.24        368      10824      29.41   45116.17
  strong branching :       0.00          7        105      15.00          -          -          -          1
    (at root node) :          -          2         26      13.00          -
  conflict analysis:       0.00          0          0       0.00          -
NLP relaxation     :
  solve time       :       0.21 (10 calls)
  convexity        :  nonconvex (46 linear rows, 0 convex ineq., 0 nonconvex ineq., 155 nonlinear eq. or two-sided ineq.)
NLP Solvers        :  #Problems  ProblemTi    #Solves  SolveTime      #Iter  Time/Iter      #Okay #TimeLimit #IterLimit #LObjLimit #Interrupt  #NumError #EvalError  #OutOfMem #LicenseEr #OtherTerm   #GlobOpt    #LocOpt  #Feasible #LocInfeas #GlobInfea #Unbounded   #Unknown
  ipopt            :        169       1.51        182      30.92      14098       0.00        155          0         19          0          0          0          8          0          0          0          0        146          5          7          0          0         24
B&B Tree           :
  number of runs   :          1
  nodes            :     199654 (100943 internal, 98711 leaves)
  feasible leaves  :          5
  infeas. leaves   :       6468
  objective leaves :      92238
  nodes (total)    :     199654 (100943 internal, 98711 leaves)
  nodes left       :          0
  max depth        :         87
  max depth (total):         87
  backtracks       :      56382 (28.2%)
  early backtracks :          0 (0.0%)
  nodes exc. ref.  :          0 (0.0%)
  delayed cutoffs  :          0
  repropagations   :          2 (0 domain reductions, 0 cutoffs)
  avg switch length:       9.98
  switching time   :      52.76
Root Node          :
  First LP value   : +2.91573109092117e+05
  First LP Iters   :         33 (22058.82 Iter/sec)
  First LP Time    :       0.00
  Final Dual Bound : +2.95125141529353e+05
  Final Root Iters :        143
  Root LP Estimate : +3.07720346153797e+05
Solution           :
  Solutions found  :         45 (14 improvements)
  First Solution   : +3.74100613296165e+05   (in run 1, after 2361 nodes, 12.85 seconds, depth 42, found by <relaxation>)
  Gap First Sol.   :      17.76 %
  Gap Last Sol.    :       0.36 %
  Primal Bound     : +3.48337035110222e+05   (in run 1, after 31928 nodes, 104.47 seconds, depth 55, found by <relaxation>)
  Dual Bound       : +3.48337035110222e+05
  Gap              :       0.00 %
Integrals          :      Total       Avg%
  primal-dual      :    1642.09       3.98
  primal-ref       :          -          - (not evaluated)
  dual-ref         :          -          - (not evaluated)
